num_offers = 30;
start = [36, 36, 36, 36, 36, 38, 38, 38, 30, 35, 35, 35, 26, 26, 56, 62, 62, 62, 62, 62, 62, 61, 61, 61, 61, 61, 61, 61, 61, 40];
end = [79, 79, 79, 79, 79, 50, 50, 50, 48, 54, 54, 54, 31, 31, 88, 99, 99, 99, 99, 99, 99, 98, 98, 98, 98, 98, 98, 98, 98, 70];
price = [3388, 3388, 3388, 3388, 3388, 481, 481, 481, 1767, 200, 200, 200, 144, 144, 1716, 3496, 3496, 3496, 3496, 3496, 3496, 3648, 3648, 3648, 3648, 3648, 3648, 3648, 3648, 1922];
num_halls = 10;
capacity = [993,993,993,993,519,845,845,845,371,697];
requirement = [580,580,905,905,905,905,905,905,905,431,431,431,431,431,757,757,757,283,609,609,609,609,609,609,609,935,935,935,935,935];
